c SAT Generator for power-law distributed variable frequencies
c -g u -v 20 -c 91 -k 3 -p 2.750000 -b 3.200000 -f /home/schmidt/Devel/ni-kop-sat/data/ensemble/ruf20-91/ruf20-91-777 -u 1 -U 1 -s 2278268805
p cnf 20 91
5 -15 -19 0
1 6 -9 0
5 11 20 0
-6 8 -17 0
5 6 9 0
14 -17 -19 0
2 -6 10 0
7 10 12 0
-5 -7 -9 0
-5 -8 18 0
1 -7 -13 0
3 -7 -13 0
2 3 -7 0
-7 -10 -15 0
6 9 -14 0
2 8 -16 0
1 6 -17 0
8 -9 14 0
9 13 16 0
-4 5 -19 0
-3 -10 16 0
3 5 18 0
5 -10 17 0
-1 5 9 0
-5 -10 13 0
-6 -18 19 0
15 -18 19 0
-7 -18 20 0
-4 8 11 0
3 7 11 0
-2 -8 18 0
-4 -5 16 0
-2 6 -12 0
-5 8 18 0
1 -6 15 0
-2 -5 19 0
1 -8 -10 0
-17 -18 20 0
4 -8 10 0
5 18 -19 0
3 -4 18 0
3 -9 14 0
2 -6 -17 0
9 13 -20 0
-1 -3 18 0
-4 -9 -16 0
6 12 -18 0
-1 -4 -8 0
2 -17 20 0
-4 -10 -18 0
8 -11 -12 0
-4 -14 -15 0
-11 -12 18 0
16 18 -19 0
3 15 -17 0
1 -10 17 0
-4 -10 -13 0
3 10 -18 0
-5 11 18 0
2 -14 18 0
4 -7 12 0
-7 -9 20 0
-5 10 16 0
-1 2 -9 0
-5 -6 -11 0
-10 11 14 0
-14 17 19 0
-1 -4 18 0
-3 18 -19 0
-1 2 -20 0
-7 -12 20 0
-6 8 -16 0
-1 -2 -5 0
-8 10 -13 0
-2 3 9 0
4 -6 -10 0
-8 -10 16 0
-11 12 19 0
-9 17 18 0
-5 -13 14 0
8 -9 13 0
-6 8 12 0
-10 -15 -16 0
8 -13 17 0
5 -7 -19 0
-1 4 14 0
1 -6 -10 0
1 3 -20 0
-4 -11 14 0
-13 17 -18 0
-8 -16 18 0
